60
2 0 1
2 1 1
3 1 3
4 1 2
4 2 2
5 2 4
5 3 4
6 2 3
6 3 3
7 0 1
7 2 1
7 3 1
7 4 1
8 0 4
8 2 2
9 0 4
9 2 3
9 3 2
9 5 3
9 7 3
9 8 2
10 0 4
10 1 4
10 5 2
10 8 2
11 0 1
11 1 2
11 3 3
11 8 1
11 9 2
11 10 3
12 1 3
12 4 2
12 8 3
12 10 2
13 1 3
13 2 2
13 3 1
13 5 4
13 7 1
13 10 3
13 12 3
14 0 4
14 1 4
14 2 3
14 5 4
14 6 1
14 7 4
14 10 3
14 11 2
14 13 4
15 0 4
15 4 2
15 7 1
15 10 3
15 11 1
15 14 4
16 4 4
16 5 3
16 7 4
16 10 2
16 12 2
16 13 2
17 1 4
17 7 2
17 11 4
17 12 4
17 13 2
17 14 3
18 1 2
18 4 1
18 7 1
18 12 4
18 13 3
18 15 3
18 16 2
19 0 3
19 1 4
19 2 1
19 7 2
19 9 2
19 12 4
19 17 1
19 18 4
20 2 3
20 7 2
20 8 4
20 9 3
20 10 2
20 13 4
20 14 3
20 15 1
20 17 2
20 19 4
21 1 2
21 2 2
21 3 3
21 9 4
21 12 1
21 15 2
21 16 3
21 18 2
21 19 2
21 20 4
22 2 4
22 3 3
22 4 3
22 6 2
22 7 3
22 8 2
22 10 3
22 12 3
22 13 2
22 16 1
22 19 4
22 20 4
23 0 3
23 1 4
23 2 3
23 3 2
23 4 1
23 5 4
23 9 4
23 10 1
23 11 2
23 12 4
23 16 3
23 18 1
23 20 2
23 21 3
23 22 2
24 0 3
24 2 3
24 7 3
24 8 3
24 9 2
24 10 1
24 11 3
24 13 4
24 14 1
24 15 4
24 17 1
24 18 3
24 21 3
24 22 3
25 2 3
25 4 2
25 5 4
25 7 3
25 8 1
25 9 2
25 10 4
25 11 4
25 12 2
25 14 1
25 15 2
25 16 1
25 17 3
25 19 1
25 21 3
25 22 3
25 23 1
26 2 3
26 5 1
26 7 2
26 8 1
26 9 3
26 10 1
26 11 4
26 12 1
26 13 1
26 16 2
26 18 3
26 20 1
26 21 1
26 23 1
26 25 4
27 0 4
27 1 1
27 7 2
27 9 1
27 10 1
27 12 3
27 13 4
27 14 4
27 15 1
27 16 4
27 17 4
27 23 4
28 5 3
28 6 4
28 7 2
28 9 1
28 10 4
28 12 2
28 13 2
28 14 4
28 15 1
28 16 4
28 19 3
28 21 1
28 22 4
28 24 3
28 25 4
28 26 1
29 0 3
29 2 4
29 3 2
29 6 1
29 9 4
29 11 3
29 14 3
29 15 2
29 16 1
29 17 4
29 18 3
29 19 3
29 20 4
29 22 1
29 23 3
29 24 2
29 25 2
29 26 2
29 27 1
29 28 2
30 0 1
30 1 3
30 3 1
30 6 3
30 7 3
30 11 4
30 15 1
30 16 3
30 21 2
30 24 3
30 27 2
30 29 1
31 0 1
31 1 4
31 4 2
31 5 2
31 6 4
31 10 2
31 11 1
31 12 1
31 13 1
31 15 1
31 18 2
31 27 2
31 29 3
31 30 2
32 0 2
32 1 3
32 2 3
32 3 4
32 5 3
32 7 2
32 11 4
32 12 1
32 13 2
32 14 3
32 16 4
32 17 1
32 19 1
32 21 2
32 22 3
32 23 1
32 25 2
32 26 4
32 27 3
32 28 1
32 29 1
32 30 1
33 2 4
33 6 2
33 7 3
33 10 3
33 11 1
33 13 2
33 14 1
33 18 1
33 19 3
33 21 2
33 24 1
33 25 4
33 28 3
33 29 4
33 30 4
34 1 3
34 6 1
34 7 3
34 9 3
34 14 1
34 15 4
34 16 1
34 19 4
34 20 3
34 22 4
34 23 3
34 24 4
34 27 2
34 28 2
34 31 3
35 5 4
35 8 2
35 9 4
35 10 4
35 12 4
35 16 1
35 19 2
35 23 1
35 24 4
35 28 1
35 29 4
35 30 2
35 32 2
35 33 3
35 34 3
36 3 4
36 5 4
36 7 4
36 10 1
36 12 4
36 15 3
36 18 3
36 21 2
36 22 4
36 23 4
36 26 2
36 27 1
36 29 4
36 30 2
36 33 1
36 35 2
37 0 2
37 2 4
37 7 3
37 9 3
37 10 4
37 13 3
37 15 3
37 16 2
37 17 2
37 21 3
37 22 2
37 23 3
37 24 2
37 26 3
37 28 3
37 30 1
37 33 2
37 36 3
38 0 1
38 1 4
38 2 4
38 3 1
38 4 1
38 5 3
38 12 4
38 16 3
38 17 3
38 22 2
38 27 3
38 28 2
38 31 2
38 32 2
38 33 3
38 35 3
38 36 1
39 0 3
39 1 4
39 4 4
39 8 3
39 9 2
39 12 3
39 13 1
39 15 3
39 16 4
39 21 3
39 24 3
39 26 1
39 29 2
39 30 1
39 33 1
39 34 2
39 38 4
40 0 2
40 1 4
40 3 2
40 4 1
40 5 1
40 6 3
40 7 3
40 8 1
40 9 2
40 10 3
40 12 4
40 19 4
40 21 4
40 22 4
40 27 3
40 28 3
40 29 1
40 30 1
40 32 4
40 33 4
40 35 1
40 36 1
40 37 2
40 38 1
40 39 1
41 0 1
41 1 2
41 3 3
41 4 2
41 5 2
41 11 3
41 13 3
41 17 4
41 18 3
41 21 2
41 23 1
41 25 1
41 27 3
41 29 3
41 33 4
41 34 1
41 35 2
42 3 3
42 7 4
42 11 4
42 14 4
42 16 2
42 21 2
42 25 4
42 26 3
42 28 3
42 29 3
42 30 2
42 31 4
42 32 2
42 33 4
42 40 1
43 3 2
43 6 2
43 7 3
43 9 3
43 11 2
43 13 2
43 14 3
43 18 4
43 19 4
43 26 4
43 28 2
43 30 2
43 31 1
43 32 4
43 34 4
43 36 3
43 37 2
43 38 4
44 0 1
44 1 2
44 2 3
44 3 2
44 4 4
44 6 1
44 9 2
44 11 4
44 13 1
44 15 1
44 16 1
44 20 3
44 27 4
44 29 4
44 33 2
44 35 4
44 36 4
44 37 3
44 38 4
44 41 4
45 1 1
45 3 3
45 5 4
45 8 1
45 9 2
45 11 4
45 12 3
45 13 3
45 16 1
45 18 2
45 20 3
45 21 4
45 24 3
45 27 1
45 29 2
45 31 4
45 32 2
45 34 2
45 35 4
45 36 1
45 43 1
45 44 2
46 1 2
46 3 4
46 6 2
46 8 2
46 9 1
46 11 2
46 12 4
46 15 4
46 16 2
46 18 3
46 19 2
46 20 1
46 21 1
46 22 3
46 23 4
46 24 4
46 27 1
46 29 1
46 32 2
46 33 3
46 34 2
46 36 3
46 37 1
46 39 1
46 42 1
46 43 1
46 44 1
47 2 1
47 3 1
47 4 2
47 7 3
47 8 1
47 9 4
47 10 1
47 11 4
47 14 2
47 15 1
47 29 2
47 30 4
47 31 4
47 36 1
47 37 1
47 41 3
47 42 1
47 44 3
47 45 1
48 0 2
48 1 4
48 2 2
48 3 4
48 4 4
48 8 4
48 10 1
48 11 3
48 13 4
48 15 2
48 17 3
48 19 4
48 21 2
48 22 4
48 25 1
48 26 3
48 27 3
48 28 3
48 30 1
48 32 2
48 37 1
48 42 4
48 44 4
48 46 1
49 1 1
49 2 4
49 5 1
49 6 4
49 8 3
49 11 4
49 13 4
49 14 3
49 16 1
49 17 1
49 20 3
49 21 2
49 23 3
49 24 1
49 26 2
49 31 2
49 35 4
49 36 1
49 40 3
49 44 4
49 45 4
49 47 2
50 3 2
50 4 3
50 5 1
50 6 1
50 7 2
50 12 3
50 13 1
50 14 1
50 15 4
50 18 4
50 19 3
50 21 1
50 22 3
50 24 4
50 26 3
50 29 1
50 31 3
50 33 4
50 38 2
50 39 4
50 40 2
50 41 1
50 42 3
50 43 4
50 44 4
50 48 4
51 1 4
51 2 4
51 3 2
51 5 3
51 9 2
51 12 2
51 18 2
51 19 1
51 22 1
51 25 1
51 29 1
51 30 1
51 32 4
51 34 3
51 35 4
51 37 4
51 39 3
51 43 1
51 45 1
51 46 3
51 50 2
52 0 3
52 1 2
52 2 4
52 6 3
52 7 3
52 8 1
52 10 3
52 12 1
52 16 1
52 18 1
52 24 1
52 25 2
52 26 2
52 27 4
52 30 2
52 32 1
52 35 2
52 36 4
52 37 4
52 38 1
52 42 2
52 44 3
52 45 4
52 47 3
52 51 2
53 1 3
53 4 1
53 6 3
53 7 2
53 10 3
53 13 4
53 14 3
53 15 2
53 16 3
53 22 3
53 24 2
53 25 3
53 27 1
53 28 3
53 39 3
53 40 1
53 44 3
53 45 1
53 48 4
53 49 1
53 50 4
54 0 2
54 1 3
54 2 1
54 3 3
54 8 3
54 10 1
54 21 2
54 22 3
54 23 4
54 24 3
54 26 3
54 29 1
54 30 1
54 33 3
54 37 2
54 42 1
54 43 1
54 45 1
54 46 4
54 47 3
54 49 2
54 50 2
54 52 3
54 53 4
55 0 2
55 1 1
55 2 1
55 3 2
55 7 2
55 10 4
55 11 4
55 13 3
55 14 1
55 17 2
55 18 1
55 19 3
55 20 3
55 23 2
55 26 2
55 28 1
55 31 1
55 32 2
55 37 1
55 38 2
55 39 2
55 40 4
55 41 2
55 42 2
55 45 3
55 52 3
55 54 2
56 2 1
56 3 3
56 7 1
56 9 1
56 11 2
56 14 2
56 15 3
56 17 4
56 18 1
56 22 2
56 24 2
56 25 4
56 26 2
56 28 1
56 31 3
56 34 1
56 35 1
56 39 2
56 45 1
56 46 2
56 49 4
56 52 2
56 53 1
57 0 1
57 2 1
57 3 4
57 4 3
57 5 4
57 10 3
57 12 4
57 15 1
57 17 3
57 20 4
57 27 1
57 28 1
57 31 3
57 36 1
57 37 4
57 38 3
57 43 1
57 45 3
57 46 2
57 47 4
57 48 4
57 50 1
57 51 1
57 52 3
57 55 2
58 0 1
58 1 2
58 2 1
58 3 3
58 6 2
58 8 3
58 9 1
58 12 3
58 13 2
58 14 2
58 15 1
58 16 4
58 19 2
58 20 1
58 23 1
58 24 3
58 25 4
58 26 3
58 27 3
58 28 1
58 29 4
58 30 4
58 35 2
58 37 4
58 38 4
58 40 4
58 45 2
58 46 4
58 48 1
58 49 2
58 50 4
58 52 4
58 55 1
58 57 4
59 0 2
59 1 1
59 2 2
59 3 4
59 4 3
59 6 1
59 7 3
59 9 1
59 11 2
59 14 2
59 16 2
59 19 1
59 25 3
59 27 2
59 28 2
59 31 2
59 32 3
59 33 1
59 34 4
59 35 1
59 36 3
59 37 4
59 40 4
59 41 3
59 43 1
59 45 3
59 46 1
59 47 2
59 48 3
59 51 2
59 52 3
59 53 4
59 55 4
59 57 3
